DIMENSION :14
NODE_COORD_SECTION
1 17.190734690056274 -92.53478159294572
2 62.02050027564377 28.11327781992125
3 15.387508019338725 72.16649297201033
4 -7.651230520404866 80.57743790051228
5 73.87195590922641 45.77410374150034
6 -83.14021094223722 -73.6981026457488
7 33.999920903569006 40.10228135304146
8 -15.869627962384342 -24.486626498785327
9 35.29881593588024 -74.89674242984225
10 -79.23337931272856 -88.90802742234061
11 22.59233742097628 3.6720007105710124
12 73.47552767805578 96.91369648566274
13 -33.77269057388821 3.6805633945423892
14 -31.83974822603581 54.24349477899054
EOF
